NAME CFLP
ROWS
 N  OBJ
 E  demand_1
 E  demand_2
 E  demand_3
 E  demand_4
 E  demand_5
 E  demand_6
 E  demand_7
 E  demand_8
 E  demand_9
 E  demand_10
 E  demand_11
 E  demand_12
 E  demand_13
 E  demand_14
 E  demand_15
 E  demand_16
 E  demand_17
 E  demand_18
 E  demand_19
 E  demand_20
 E  demand_21
 E  demand_22
 E  demand_23
 E  demand_24
 E  demand_25
 E  demand_26
 E  demand_27
 E  demand_28
 E  demand_29
 E  demand_30
 E  demand_31
 L  c_disjunction_1_diajunct_1
 L  c_disjunction_1_disjunct_2
 E  R33     
 L  c_disjunction_2_diajunct_1
 L  c_disjunction_2_disjunct_2
 E  R36     
 L  c_disjunction_3_diajunct_1
 L  c_disjunction_3_disjunct_2
 E  R39     
 L  c_disjunction_4_diajunct_1
 L  c_disjunction_4_disjunct_2
 E  R42     
 L  c_disjunction_5_diajunct_1
 L  c_disjunction_5_disjunct_2
 E  R45     
 L  c_disjunction_6_diajunct_1
 L  c_disjunction_6_disjunct_2
 E  R48     
 L  c_disjunction_7_diajunct_1
 L  c_disjunction_7_disjunct_2
 E  R51     
 L  c_disjunction_8_diajunct_1
 L  c_disjunction_8_disjunct_2
 E  R54     
 L  c_disjunction_9_diajunct_1
 L  c_disjunction_9_disjunct_2
 E  R57     
 L  c_disjunction_10_diajunct_1
 L  c_disjunction_10_disjunct_2
 E  R60     
 L  c_disjunction_11_diajunct_1
 L  c_disjunction_11_disjunct_2
 E  R63     
 L  c_disjunction_12_diajunct_1
 L  c_disjunction_12_disjunct_2
 E  R66     
 L  c_disjunction_13_diajunct_1
 L  c_disjunction_13_disjunct_2
 E  R69     
 L  c_disjunction_14_diajunct_1
 L  c_disjunction_14_disjunct_2
 E  R72     
 L  c_disjunction_15_diajunct_1
 L  c_disjunction_15_disjunct_2
 E  R75     
 L  c_disjunction_16_diajunct_1
 L  c_disjunction_16_disjunct_2
 E  R78     
 L  c_disjunction_17_diajunct_1
 L  c_disjunction_17_disjunct_2
 E  R81     
 L  c_disjunction_18_diajunct_1
 L  c_disjunction_18_disjunct_2
 E  R84     
 L  c_disjunction_19_diajunct_1
 L  c_disjunction_19_disjunct_2
 E  R87     
 L  c_disjunction_20_diajunct_1
 L  c_disjunction_20_disjunct_2
 E  R90     
 L  c_disjunction_21_diajunct_1
 L  c_disjunction_21_disjunct_2
 E  R93     
 L  c_disjunction_22_diajunct_1
 L  c_disjunction_22_disjunct_2
 E  R96     
 L  c_disjunction_23_diajunct_1
 L  c_disjunction_23_disjunct_2
 E  R99     
 L  c_disjunction_24_diajunct_1
 L  c_disjunction_24_disjunct_2
 E  R102    
 L  c_disjunction_25_diajunct_1
 L  c_disjunction_25_disjunct_2
 E  R105    
 L  c_disjunction_26_diajunct_1
 L  c_disjunction_26_disjunct_2
 E  R108    
 L  c_disjunction_27_diajunct_1
 L  c_disjunction_27_disjunct_2
 E  R111    
 L  c_disjunction_28_diajunct_1
 L  c_disjunction_28_disjunct_2
 E  R114    
 L  c_disjunction_29_diajunct_1
 L  c_disjunction_29_disjunct_2
 E  R117    
 L  c_disjunction_30_diajunct_1
 L  c_disjunction_30_disjunct_2
 E  R120    
 L  c_disjunction_31_diajunct_1
 L  c_disjunction_31_disjunct_2
 E  R123    
COLUMNS
    MARKER    'MARKER'                 'INTORG'
    ind_disjunction_1_disjunct_1  OBJ       1188
    ind_disjunction_1_disjunct_1  c_disjunction_1_diajunct_1  -117
    ind_disjunction_1_disjunct_1  R33       1
    ind_disjunction_2_disjunct_1  OBJ       1188
    ind_disjunction_2_disjunct_1  c_disjunction_2_diajunct_1  -117
    ind_disjunction_2_disjunct_1  R36       1
    ind_disjunction_3_disjunct_1  OBJ       1188
    ind_disjunction_3_disjunct_1  c_disjunction_3_diajunct_1  -117
    ind_disjunction_3_disjunct_1  R39       1
    ind_disjunction_4_disjunct_1  OBJ       1188
    ind_disjunction_4_disjunct_1  c_disjunction_4_diajunct_1  -117
    ind_disjunction_4_disjunct_1  R42       1
    ind_disjunction_5_disjunct_1  OBJ       1188
    ind_disjunction_5_disjunct_1  c_disjunction_5_diajunct_1  -117
    ind_disjunction_5_disjunct_1  R45       1
    ind_disjunction_6_disjunct_1  OBJ       1188
    ind_disjunction_6_disjunct_1  c_disjunction_6_diajunct_1  -117
    ind_disjunction_6_disjunct_1  R48       1
    ind_disjunction_7_disjunct_1  OBJ       1188
    ind_disjunction_7_disjunct_1  c_disjunction_7_diajunct_1  -117
    ind_disjunction_7_disjunct_1  R51       1
    ind_disjunction_8_disjunct_1  OBJ       1188
    ind_disjunction_8_disjunct_1  c_disjunction_8_diajunct_1  -117
    ind_disjunction_8_disjunct_1  R54       1
    ind_disjunction_9_disjunct_1  OBJ       1188
    ind_disjunction_9_disjunct_1  c_disjunction_9_diajunct_1  -117
    ind_disjunction_9_disjunct_1  R57       1
    ind_disjunction_10_disjunct_1  OBJ       1188
    ind_disjunction_10_disjunct_1  c_disjunction_10_diajunct_1  -117
    ind_disjunction_10_disjunct_1  R60       1
    ind_disjunction_11_disjunct_1  OBJ       1188
    ind_disjunction_11_disjunct_1  c_disjunction_11_diajunct_1  -117
    ind_disjunction_11_disjunct_1  R63       1
    ind_disjunction_12_disjunct_1  OBJ       1188
    ind_disjunction_12_disjunct_1  c_disjunction_12_diajunct_1  -117
    ind_disjunction_12_disjunct_1  R66       1
    ind_disjunction_13_disjunct_1  OBJ       1188
    ind_disjunction_13_disjunct_1  c_disjunction_13_diajunct_1  -117
    ind_disjunction_13_disjunct_1  R69       1
    ind_disjunction_14_disjunct_1  OBJ       1188
    ind_disjunction_14_disjunct_1  c_disjunction_14_diajunct_1  -117
    ind_disjunction_14_disjunct_1  R72       1
    ind_disjunction_15_disjunct_1  OBJ       1188
    ind_disjunction_15_disjunct_1  c_disjunction_15_diajunct_1  -117
    ind_disjunction_15_disjunct_1  R75       1
    ind_disjunction_16_disjunct_1  OBJ       1188
    ind_disjunction_16_disjunct_1  c_disjunction_16_diajunct_1  -117
    ind_disjunction_16_disjunct_1  R78       1
    ind_disjunction_17_disjunct_1  OBJ       1188
    ind_disjunction_17_disjunct_1  c_disjunction_17_diajunct_1  -117
    ind_disjunction_17_disjunct_1  R81       1
    ind_disjunction_18_disjunct_1  OBJ       1188
    ind_disjunction_18_disjunct_1  c_disjunction_18_diajunct_1  -117
    ind_disjunction_18_disjunct_1  R84       1
    ind_disjunction_19_disjunct_1  OBJ       1188
    ind_disjunction_19_disjunct_1  c_disjunction_19_diajunct_1  -117
    ind_disjunction_19_disjunct_1  R87       1
    ind_disjunction_20_disjunct_1  OBJ       1188
    ind_disjunction_20_disjunct_1  c_disjunction_20_diajunct_1  -117
    ind_disjunction_20_disjunct_1  R90       1
    ind_disjunction_21_disjunct_1  OBJ       1188
    ind_disjunction_21_disjunct_1  c_disjunction_21_diajunct_1  -117
    ind_disjunction_21_disjunct_1  R93       1
    ind_disjunction_22_disjunct_1  OBJ       1188
    ind_disjunction_22_disjunct_1  c_disjunction_22_diajunct_1  -117
    ind_disjunction_22_disjunct_1  R96       1
    ind_disjunction_23_disjunct_1  OBJ       1188
    ind_disjunction_23_disjunct_1  c_disjunction_23_diajunct_1  -117
    ind_disjunction_23_disjunct_1  R99       1
    ind_disjunction_24_disjunct_1  OBJ       1188
    ind_disjunction_24_disjunct_1  c_disjunction_24_diajunct_1  -117
    ind_disjunction_24_disjunct_1  R102      1
    ind_disjunction_25_disjunct_1  OBJ       1188
    ind_disjunction_25_disjunct_1  c_disjunction_25_diajunct_1  -117
    ind_disjunction_25_disjunct_1  R105      1
    ind_disjunction_26_disjunct_1  OBJ       1188
    ind_disjunction_26_disjunct_1  c_disjunction_26_diajunct_1  -117
    ind_disjunction_26_disjunct_1  R108      1
    ind_disjunction_27_disjunct_1  OBJ       1188
    ind_disjunction_27_disjunct_1  c_disjunction_27_diajunct_1  -117
    ind_disjunction_27_disjunct_1  R111      1
    ind_disjunction_28_disjunct_1  OBJ       1188
    ind_disjunction_28_disjunct_1  c_disjunction_28_diajunct_1  -117
    ind_disjunction_28_disjunct_1  R114      1
    ind_disjunction_29_disjunct_1  OBJ       1188
    ind_disjunction_29_disjunct_1  c_disjunction_29_diajunct_1  -117
    ind_disjunction_29_disjunct_1  R117      1
    ind_disjunction_30_disjunct_1  OBJ       1188
    ind_disjunction_30_disjunct_1  c_disjunction_30_diajunct_1  -117
    ind_disjunction_30_disjunct_1  R120      1
    ind_disjunction_31_disjunct_1  OBJ       1188
    ind_disjunction_31_disjunct_1  c_disjunction_31_diajunct_1  -117
    ind_disjunction_31_disjunct_1  R123      1
    ind_disjunction_1_disjunct_2  c_disjunction_1_disjunct_2  2
    ind_disjunction_1_disjunct_2  R33       1
    ind_disjunction_2_disjunct_2  c_disjunction_2_disjunct_2  1
    ind_disjunction_2_disjunct_2  R36       1
    ind_disjunction_3_disjunct_2  c_disjunction_3_disjunct_2  4
    ind_disjunction_3_disjunct_2  R39       1
    ind_disjunction_4_disjunct_2  c_disjunction_4_disjunct_2  3
    ind_disjunction_4_disjunct_2  R42       1
    ind_disjunction_5_disjunct_2  c_disjunction_5_disjunct_2  2
    ind_disjunction_5_disjunct_2  R45       1
    ind_disjunction_6_disjunct_2  c_disjunction_6_disjunct_2  1
    ind_disjunction_6_disjunct_2  R48       1
    ind_disjunction_7_disjunct_2  c_disjunction_7_disjunct_2  3
    ind_disjunction_7_disjunct_2  R51       1
    ind_disjunction_8_disjunct_2  c_disjunction_8_disjunct_2  4
    ind_disjunction_8_disjunct_2  R54       1
    ind_disjunction_9_disjunct_2  c_disjunction_9_disjunct_2  3
    ind_disjunction_9_disjunct_2  R57       1
    ind_disjunction_10_disjunct_2  c_disjunction_10_disjunct_2  3
    ind_disjunction_10_disjunct_2  R60       1
    ind_disjunction_11_disjunct_2  c_disjunction_11_disjunct_2  4
    ind_disjunction_11_disjunct_2  R63       1
    ind_disjunction_12_disjunct_2  c_disjunction_12_disjunct_2  2
    ind_disjunction_12_disjunct_2  R66       1
    ind_disjunction_13_disjunct_2  c_disjunction_13_disjunct_2  1
    ind_disjunction_13_disjunct_2  R69       1
    ind_disjunction_14_disjunct_2  c_disjunction_14_disjunct_2  3
    ind_disjunction_14_disjunct_2  R72       1
    ind_disjunction_15_disjunct_2  c_disjunction_15_disjunct_2  3
    ind_disjunction_15_disjunct_2  R75       1
    ind_disjunction_16_disjunct_2  c_disjunction_16_disjunct_2  4
    ind_disjunction_16_disjunct_2  R78       1
    ind_disjunction_17_disjunct_2  c_disjunction_17_disjunct_2  3
    ind_disjunction_17_disjunct_2  R81       1
    ind_disjunction_18_disjunct_2  c_disjunction_18_disjunct_2  3
    ind_disjunction_18_disjunct_2  R84       1
    ind_disjunction_19_disjunct_2  c_disjunction_19_disjunct_2  3
    ind_disjunction_19_disjunct_2  R87       1
    ind_disjunction_20_disjunct_2  c_disjunction_20_disjunct_2  4
    ind_disjunction_20_disjunct_2  R90       1
    ind_disjunction_21_disjunct_2  c_disjunction_21_disjunct_2  4
    ind_disjunction_21_disjunct_2  R93       1
    ind_disjunction_22_disjunct_2  c_disjunction_22_disjunct_2  4
    ind_disjunction_22_disjunct_2  R96       1
    ind_disjunction_23_disjunct_2  c_disjunction_23_disjunct_2  2
    ind_disjunction_23_disjunct_2  R99       1
    ind_disjunction_24_disjunct_2  c_disjunction_24_disjunct_2  5
    ind_disjunction_24_disjunct_2  R102      1
    ind_disjunction_25_disjunct_2  c_disjunction_25_disjunct_2  3
    ind_disjunction_25_disjunct_2  R105      1
    ind_disjunction_26_disjunct_2  c_disjunction_26_disjunct_2  3
    ind_disjunction_26_disjunct_2  R108      1
    ind_disjunction_27_disjunct_2  c_disjunction_27_disjunct_2  3
    ind_disjunction_27_disjunct_2  R111      1
    ind_disjunction_28_disjunct_2  c_disjunction_28_disjunct_2  3
    ind_disjunction_28_disjunct_2  R114      1
    ind_disjunction_29_disjunct_2  c_disjunction_29_disjunct_2  3
    ind_disjunction_29_disjunct_2  R117      1
    ind_disjunction_30_disjunct_2  c_disjunction_30_disjunct_2  3
    ind_disjunction_30_disjunct_2  R120      1
    ind_disjunction_31_disjunct_2  c_disjunction_31_disjunct_2  4
    ind_disjunction_31_disjunct_2  R123      1
    x[1,1]    demand_1  1
    x[1,1]    c_disjunction_1_diajunct_1  5
    x[1,1]    c_disjunction_1_disjunct_2  1
    x[28,1]   OBJ       7.3
    x[28,1]   demand_1  1
    x[28,1]   c_disjunction_28_diajunct_1  5
    x[28,1]   c_disjunction_28_disjunct_2  1
    x[12,1]   OBJ       13.6
    x[12,1]   demand_1  1
    x[12,1]   c_disjunction_12_diajunct_1  5
    x[12,1]   c_disjunction_12_disjunct_2  1
    x[2,2]    demand_2  1
    x[2,2]    c_disjunction_2_diajunct_1  28
    x[2,2]    c_disjunction_2_disjunct_2  1
    x[21,2]   OBJ       40.7
    x[21,2]   demand_2  1
    x[21,2]   c_disjunction_21_diajunct_1  28
    x[21,2]   c_disjunction_21_disjunct_2  1
    x[5,2]    OBJ       56.8
    x[5,2]    demand_2  1
    x[5,2]    c_disjunction_5_diajunct_1  28
    x[5,2]    c_disjunction_5_disjunct_2  1
    x[3,3]    demand_3  1
    x[3,3]    c_disjunction_3_diajunct_1  26
    x[3,3]    c_disjunction_3_disjunct_2  1
    x[17,3]   OBJ       32
    x[17,3]   demand_3  1
    x[17,3]   c_disjunction_17_diajunct_1  26
    x[17,3]   c_disjunction_17_disjunct_2  1
    x[18,3]   OBJ       45.1
    x[18,3]   demand_3  1
    x[18,3]   c_disjunction_18_diajunct_1  26
    x[18,3]   c_disjunction_18_disjunct_2  1
    x[4,4]    demand_4  1
    x[4,4]    c_disjunction_4_diajunct_1  8
    x[4,4]    c_disjunction_4_disjunct_2  1
    x[19,4]   OBJ       3.1
    x[19,4]   demand_4  1
    x[19,4]   c_disjunction_19_diajunct_1  8
    x[19,4]   c_disjunction_19_disjunct_2  1
    x[29,4]   OBJ       5.9
    x[29,4]   demand_4  1
    x[29,4]   c_disjunction_29_diajunct_1  8
    x[29,4]   c_disjunction_29_disjunct_2  1
    x[5,5]    demand_5  1
    x[5,5]    c_disjunction_5_diajunct_1  27
    x[5,5]    c_disjunction_5_disjunct_2  1
    x[16,5]   OBJ       34.1
    x[16,5]   demand_5  1
    x[16,5]   c_disjunction_16_diajunct_1  27
    x[16,5]   c_disjunction_16_disjunct_2  1
    x[8,5]    OBJ       45.7
    x[8,5]    demand_5  1
    x[8,5]    c_disjunction_8_diajunct_1  27
    x[8,5]    c_disjunction_8_disjunct_2  1
    x[6,6]    demand_6  1
    x[6,6]    c_disjunction_6_diajunct_1  25
    x[6,6]    c_disjunction_6_disjunct_2  1
    x[22,6]   OBJ       48.6
    x[22,6]   demand_6  1
    x[22,6]   c_disjunction_22_diajunct_1  25
    x[22,6]   c_disjunction_22_disjunct_2  1
    x[28,6]   OBJ       74.7
    x[28,6]   demand_6  1
    x[28,6]   c_disjunction_28_diajunct_1  25
    x[28,6]   c_disjunction_28_disjunct_2  1
    x[7,7]    demand_7  1
    x[7,7]    c_disjunction_7_diajunct_1  12
    x[7,7]    c_disjunction_7_disjunct_2  1
    x[10,7]   OBJ       1.7
    x[10,7]   demand_7  1
    x[10,7]   c_disjunction_10_diajunct_1  12
    x[10,7]   c_disjunction_10_disjunct_2  1
    x[30,7]   OBJ       9.6
    x[30,7]   demand_7  1
    x[30,7]   c_disjunction_30_diajunct_1  12
    x[30,7]   c_disjunction_30_disjunct_2  1
    x[8,8]    demand_8  1
    x[8,8]    c_disjunction_8_diajunct_1  15
    x[8,8]    c_disjunction_8_disjunct_2  1
    x[23,8]   OBJ       14.2
    x[23,8]   demand_8  1
    x[23,8]   c_disjunction_23_diajunct_1  15
    x[23,8]   c_disjunction_23_disjunct_2  1
    x[16,8]   OBJ       16.6
    x[16,8]   demand_8  1
    x[16,8]   c_disjunction_16_diajunct_1  15
    x[16,8]   c_disjunction_16_disjunct_2  1
    x[9,9]    demand_9  1
    x[9,9]    c_disjunction_9_diajunct_1  7
    x[9,9]    c_disjunction_9_disjunct_2  1
    x[14,9]   OBJ       4.9
    x[14,9]   demand_9  1
    x[14,9]   c_disjunction_14_diajunct_1  7
    x[14,9]   c_disjunction_14_disjunct_2  1
    x[22,9]   OBJ       13.4
    x[22,9]   demand_9  1
    x[22,9]   c_disjunction_22_diajunct_1  7
    x[22,9]   c_disjunction_22_disjunct_2  1
    x[10,10]  demand_10  1
    x[10,10]  c_disjunction_10_diajunct_1  14
    x[10,10]  c_disjunction_10_disjunct_2  1
    x[7,10]   OBJ       1.9
    x[7,10]   demand_10  1
    x[7,10]   c_disjunction_7_diajunct_1  14
    x[7,10]   c_disjunction_7_disjunct_2  1
    x[30,10]  OBJ       12.9
    x[30,10]  demand_10  1
    x[30,10]  c_disjunction_30_diajunct_1  14
    x[30,10]  c_disjunction_30_disjunct_2  1
    x[11,11]  demand_11  1
    x[11,11]  c_disjunction_11_diajunct_1  28
    x[11,11]  c_disjunction_11_disjunct_2  1
    x[15,11]  OBJ       5.2
    x[15,11]  demand_11  1
    x[15,11]  c_disjunction_15_diajunct_1  28
    x[15,11]  c_disjunction_15_disjunct_2  1
    x[24,11]  OBJ       32.5
    x[24,11]  demand_11  1
    x[24,11]  c_disjunction_24_diajunct_1  28
    x[24,11]  c_disjunction_24_disjunct_2  1
    x[12,12]  demand_12  1
    x[12,12]  c_disjunction_12_diajunct_1  16
    x[12,12]  c_disjunction_12_disjunct_2  1
    x[31,12]  OBJ       22.4
    x[31,12]  demand_12  1
    x[31,12]  c_disjunction_31_diajunct_1  16
    x[31,12]  c_disjunction_31_disjunct_2  1
    x[20,12]  OBJ       25.5
    x[20,12]  demand_12  1
    x[20,12]  c_disjunction_20_diajunct_1  16
    x[20,12]  c_disjunction_20_disjunct_2  1
    x[13,13]  demand_13  1
    x[13,13]  c_disjunction_13_diajunct_1  24
    x[13,13]  c_disjunction_13_disjunct_2  1
    x[11,13]  OBJ       40.2
    x[11,13]  demand_13  1
    x[11,13]  c_disjunction_11_diajunct_1  24
    x[11,13]  c_disjunction_11_disjunct_2  1
    x[24,13]  OBJ       41
    x[24,13]  demand_13  1
    x[24,13]  c_disjunction_24_diajunct_1  24
    x[24,13]  c_disjunction_24_disjunct_2  1
    x[14,14]  demand_14  1
    x[14,14]  c_disjunction_14_diajunct_1  7
    x[14,14]  c_disjunction_14_disjunct_2  1
    x[9,14]   OBJ       4.9
    x[9,14]   demand_14  1
    x[9,14]   c_disjunction_9_diajunct_1  7
    x[9,14]   c_disjunction_9_disjunct_2  1
    x[22,14]  OBJ       9.7
    x[22,14]  demand_14  1
    x[22,14]  c_disjunction_22_diajunct_1  7
    x[22,14]  c_disjunction_22_disjunct_2  1
    x[15,15]  demand_15  1
    x[15,15]  c_disjunction_15_diajunct_1  16
    x[15,15]  c_disjunction_15_disjunct_2  1
    x[11,15]  OBJ       3
    x[11,15]  demand_15  1
    x[11,15]  c_disjunction_11_diajunct_1  16
    x[11,15]  c_disjunction_11_disjunct_2  1
    x[24,15]  OBJ       19.1
    x[24,15]  demand_15  1
    x[24,15]  c_disjunction_24_diajunct_1  16
    x[24,15]  c_disjunction_24_disjunct_2  1
    x[16,16]  demand_16  1
    x[16,16]  c_disjunction_16_diajunct_1  17
    x[16,16]  c_disjunction_16_disjunct_2  1
    x[8,16]   OBJ       18.8
    x[8,16]   demand_16  1
    x[8,16]   c_disjunction_8_diajunct_1  17
    x[8,16]   c_disjunction_8_disjunct_2  1
    x[24,16]  OBJ       21.2
    x[24,16]  demand_16  1
    x[24,16]  c_disjunction_24_diajunct_1  17
    x[24,16]  c_disjunction_24_disjunct_2  1
    x[17,17]  demand_17  1
    x[17,17]  c_disjunction_17_diajunct_1  11
    x[17,17]  c_disjunction_17_disjunct_2  1
    x[18,17]  OBJ       11.3
    x[18,17]  demand_17  1
    x[18,17]  c_disjunction_18_diajunct_1  11
    x[18,17]  c_disjunction_18_disjunct_2  1
    x[3,17]   OBJ       13.5
    x[3,17]   demand_17  1
    x[3,17]   c_disjunction_3_diajunct_1  11
    x[3,17]   c_disjunction_3_disjunct_2  1
    x[18,18]  demand_18  1
    x[18,18]  c_disjunction_18_diajunct_1  27
    x[18,18]  c_disjunction_18_disjunct_2  1
    x[17,18]  OBJ       27.6
    x[17,18]  demand_18  1
    x[17,18]  c_disjunction_17_diajunct_1  27
    x[17,18]  c_disjunction_17_disjunct_2  1
    x[3,18]   OBJ       46.8
    x[3,18]   demand_18  1
    x[3,18]   c_disjunction_3_diajunct_1  27
    x[3,18]   c_disjunction_3_disjunct_2  1
    x[19,19]  demand_19  1
    x[19,19]  c_disjunction_19_diajunct_1  30
    x[19,19]  c_disjunction_19_disjunct_2  1
    x[4,19]   OBJ       11.6
    x[4,19]   demand_19  1
    x[4,19]   c_disjunction_4_diajunct_1  30
    x[4,19]   c_disjunction_4_disjunct_2  1
    x[29,19]  OBJ       31.4
    x[29,19]  demand_19  1
    x[29,19]  c_disjunction_29_diajunct_1  30
    x[29,19]  c_disjunction_29_disjunct_2  1
    x[20,20]  demand_20  1
    x[20,20]  c_disjunction_20_diajunct_1  13
    x[20,20]  c_disjunction_20_disjunct_2  1
    x[27,20]  OBJ       5.9
    x[27,20]  demand_20  1
    x[27,20]  c_disjunction_27_diajunct_1  13
    x[27,20]  c_disjunction_27_disjunct_2  1
    x[31,20]  OBJ       12.6
    x[31,20]  demand_20  1
    x[31,20]  c_disjunction_31_diajunct_1  13
    x[31,20]  c_disjunction_31_disjunct_2  1
    x[21,21]  demand_21  1
    x[21,21]  c_disjunction_21_diajunct_1  13
    x[21,21]  c_disjunction_21_disjunct_2  1
    x[25,21]  OBJ       16.3
    x[25,21]  demand_21  1
    x[25,21]  c_disjunction_25_diajunct_1  13
    x[25,21]  c_disjunction_25_disjunct_2  1
    x[26,21]  OBJ       17.1
    x[26,21]  demand_21  1
    x[26,21]  c_disjunction_26_diajunct_1  13
    x[26,21]  c_disjunction_26_disjunct_2  1
    x[22,22]  demand_22  1
    x[22,22]  c_disjunction_22_diajunct_1  26
    x[22,22]  c_disjunction_22_disjunct_2  1
    x[14,22]  OBJ       36.2
    x[14,22]  demand_22  1
    x[14,22]  c_disjunction_14_diajunct_1  26
    x[14,22]  c_disjunction_14_disjunct_2  1
    x[9,22]   OBJ       49.8
    x[9,22]   demand_22  1
    x[9,22]   c_disjunction_9_diajunct_1  26
    x[9,22]   c_disjunction_9_disjunct_2  1
    x[23,23]  demand_23  1
    x[23,23]  c_disjunction_23_diajunct_1  33
    x[23,23]  c_disjunction_23_disjunct_2  1
    x[8,23]   OBJ       31.3
    x[8,23]   demand_23  1
    x[8,23]   c_disjunction_8_diajunct_1  33
    x[8,23]   c_disjunction_8_disjunct_2  1
    x[16,23]  OBJ       65.2
    x[16,23]  demand_23  1
    x[16,23]  c_disjunction_16_diajunct_1  33
    x[16,23]  c_disjunction_16_disjunct_2  1
    x[24,24]  demand_24  1
    x[24,24]  c_disjunction_24_diajunct_1  32
    x[24,24]  c_disjunction_24_disjunct_2  1
    x[11,24]  OBJ       37.2
    x[11,24]  demand_24  1
    x[11,24]  c_disjunction_11_diajunct_1  32
    x[11,24]  c_disjunction_11_disjunct_2  1
    x[15,24]  OBJ       38.2
    x[15,24]  demand_24  1
    x[15,24]  c_disjunction_15_diajunct_1  32
    x[15,24]  c_disjunction_15_disjunct_2  1
    x[25,25]  demand_25  1
    x[25,25]  c_disjunction_25_diajunct_1  23
    x[25,25]  c_disjunction_25_disjunct_2  1
    x[26,25]  OBJ       25
    x[26,25]  demand_25  1
    x[26,25]  c_disjunction_26_diajunct_1  23
    x[26,25]  c_disjunction_26_disjunct_2  1
    x[21,25]  OBJ       28.8
    x[21,25]  demand_25  1
    x[21,25]  c_disjunction_21_diajunct_1  23
    x[21,25]  c_disjunction_21_disjunct_2  1
    x[26,26]  demand_26  1
    x[26,26]  c_disjunction_26_diajunct_1  6
    x[26,26]  c_disjunction_26_disjunct_2  1
    x[25,26]  OBJ       6.5
    x[25,26]  demand_26  1
    x[25,26]  c_disjunction_25_diajunct_1  6
    x[25,26]  c_disjunction_25_disjunct_2  1
    x[21,26]  OBJ       7.9
    x[21,26]  demand_26  1
    x[21,26]  c_disjunction_21_diajunct_1  6
    x[21,26]  c_disjunction_21_disjunct_2  1
    x[27,27]  demand_27  1
    x[27,27]  c_disjunction_27_diajunct_1  20
    x[27,27]  c_disjunction_27_disjunct_2  1
    x[20,27]  OBJ       9
    x[20,27]  demand_27  1
    x[20,27]  c_disjunction_20_diajunct_1  20
    x[20,27]  c_disjunction_20_disjunct_2  1
    x[31,27]  OBJ       16
    x[31,27]  demand_27  1
    x[31,27]  c_disjunction_31_diajunct_1  20
    x[31,27]  c_disjunction_31_disjunct_2  1
    x[28,28]  demand_28  1
    x[28,28]  c_disjunction_28_diajunct_1  22
    x[28,28]  c_disjunction_28_disjunct_2  1
    x[1,28]   OBJ       32
    x[1,28]   demand_28  1
    x[1,28]   c_disjunction_1_diajunct_1  22
    x[1,28]   c_disjunction_1_disjunct_2  1
    x[3,28]   OBJ       43.3
    x[3,28]   demand_28  1
    x[3,28]   c_disjunction_3_diajunct_1  22
    x[3,28]   c_disjunction_3_disjunct_2  1
    x[29,29]  demand_29  1
    x[29,29]  c_disjunction_29_diajunct_1  32
    x[29,29]  c_disjunction_29_disjunct_2  1
    x[4,29]   OBJ       23.8
    x[4,29]   demand_29  1
    x[4,29]   c_disjunction_4_diajunct_1  32
    x[4,29]   c_disjunction_4_disjunct_2  1
    x[19,29]  OBJ       33.5
    x[19,29]  demand_29  1
    x[19,29]  c_disjunction_19_diajunct_1  32
    x[19,29]  c_disjunction_19_disjunct_2  1
    x[30,30]  demand_30  1
    x[30,30]  c_disjunction_30_diajunct_1  21
    x[30,30]  c_disjunction_30_disjunct_2  1
    x[7,30]   OBJ       16.9
    x[7,30]   demand_30  1
    x[7,30]   c_disjunction_7_diajunct_1  21
    x[7,30]   c_disjunction_7_disjunct_2  1
    x[10,30]  OBJ       19.4
    x[10,30]  demand_30  1
    x[10,30]  c_disjunction_10_diajunct_1  21
    x[10,30]  c_disjunction_10_disjunct_2  1
    x[31,31]  demand_31  1
    x[31,31]  c_disjunction_31_diajunct_1  25
    x[31,31]  c_disjunction_31_disjunct_2  1
    x[27,31]  OBJ       20
    x[27,31]  demand_31  1
    x[27,31]  c_disjunction_27_diajunct_1  25
    x[27,31]  c_disjunction_27_disjunct_2  1
    x[20,31]  OBJ       24.3
    x[20,31]  demand_31  1
    x[20,31]  c_disjunction_20_diajunct_1  25
    x[20,31]  c_disjunction_20_disjunct_2  1
    MARKER    'MARKER'                 'INTEND'
RHS
    RHS1      demand_1  1
    RHS1      demand_2  1
    RHS1      demand_3  1
    RHS1      demand_4  1
    RHS1      demand_5  1
    RHS1      demand_6  1
    RHS1      demand_7  1
    RHS1      demand_8  1
    RHS1      demand_9  1
    RHS1      demand_10  1
    RHS1      demand_11  1
    RHS1      demand_12  1
    RHS1      demand_13  1
    RHS1      demand_14  1
    RHS1      demand_15  1
    RHS1      demand_16  1
    RHS1      demand_17  1
    RHS1      demand_18  1
    RHS1      demand_19  1
    RHS1      demand_20  1
    RHS1      demand_21  1
    RHS1      demand_22  1
    RHS1      demand_23  1
    RHS1      demand_24  1
    RHS1      demand_25  1
    RHS1      demand_26  1
    RHS1      demand_27  1
    RHS1      demand_28  1
    RHS1      demand_29  1
    RHS1      demand_30  1
    RHS1      demand_31  1
    RHS1      c_disjunction_1_disjunct_2  2
    RHS1      R33       1
    RHS1      c_disjunction_2_disjunct_2  1
    RHS1      R36       1
    RHS1      c_disjunction_3_disjunct_2  4
    RHS1      R39       1
    RHS1      c_disjunction_4_disjunct_2  3
    RHS1      R42       1
    RHS1      c_disjunction_5_disjunct_2  2
    RHS1      R45       1
    RHS1      c_disjunction_6_disjunct_2  1
    RHS1      R48       1
    RHS1      c_disjunction_7_disjunct_2  3
    RHS1      R51       1
    RHS1      c_disjunction_8_disjunct_2  4
    RHS1      R54       1
    RHS1      c_disjunction_9_disjunct_2  3
    RHS1      R57       1
    RHS1      c_disjunction_10_disjunct_2  3
    RHS1      R60       1
    RHS1      c_disjunction_11_disjunct_2  4
    RHS1      R63       1
    RHS1      c_disjunction_12_disjunct_2  2
    RHS1      R66       1
    RHS1      c_disjunction_13_disjunct_2  1
    RHS1      R69       1
    RHS1      c_disjunction_14_disjunct_2  3
    RHS1      R72       1
    RHS1      c_disjunction_15_disjunct_2  3
    RHS1      R75       1
    RHS1      c_disjunction_16_disjunct_2  4
    RHS1      R78       1
    RHS1      c_disjunction_17_disjunct_2  3
    RHS1      R81       1
    RHS1      c_disjunction_18_disjunct_2  3
    RHS1      R84       1
    RHS1      c_disjunction_19_disjunct_2  3
    RHS1      R87       1
    RHS1      c_disjunction_20_disjunct_2  4
    RHS1      R90       1
    RHS1      c_disjunction_21_disjunct_2  4
    RHS1      R93       1
    RHS1      c_disjunction_22_disjunct_2  4
    RHS1      R96       1
    RHS1      c_disjunction_23_disjunct_2  2
    RHS1      R99       1
    RHS1      c_disjunction_24_disjunct_2  5
    RHS1      R102      1
    RHS1      c_disjunction_25_disjunct_2  3
    RHS1      R105      1
    RHS1      c_disjunction_26_disjunct_2  3
    RHS1      R108      1
    RHS1      c_disjunction_27_disjunct_2  3
    RHS1      R111      1
    RHS1      c_disjunction_28_disjunct_2  3
    RHS1      R114      1
    RHS1      c_disjunction_29_disjunct_2  3
    RHS1      R117      1
    RHS1      c_disjunction_30_disjunct_2  3
    RHS1      R120      1
    RHS1      c_disjunction_31_disjunct_2  4
    RHS1      R123      1
BOUNDS
 BV BND1      ind_disjunction_1_disjunct_1
 BV BND1      ind_disjunction_2_disjunct_1
 BV BND1      ind_disjunction_3_disjunct_1
 BV BND1      ind_disjunction_4_disjunct_1
 BV BND1      ind_disjunction_5_disjunct_1
 BV BND1      ind_disjunction_6_disjunct_1
 BV BND1      ind_disjunction_7_disjunct_1
 BV BND1      ind_disjunction_8_disjunct_1
 BV BND1      ind_disjunction_9_disjunct_1
 BV BND1      ind_disjunction_10_disjunct_1
 BV BND1      ind_disjunction_11_disjunct_1
 BV BND1      ind_disjunction_12_disjunct_1
 BV BND1      ind_disjunction_13_disjunct_1
 BV BND1      ind_disjunction_14_disjunct_1
 BV BND1      ind_disjunction_15_disjunct_1
 BV BND1      ind_disjunction_16_disjunct_1
 BV BND1      ind_disjunction_17_disjunct_1
 BV BND1      ind_disjunction_18_disjunct_1
 BV BND1      ind_disjunction_19_disjunct_1
 BV BND1      ind_disjunction_20_disjunct_1
 BV BND1      ind_disjunction_21_disjunct_1
 BV BND1      ind_disjunction_22_disjunct_1
 BV BND1      ind_disjunction_23_disjunct_1
 BV BND1      ind_disjunction_24_disjunct_1
 BV BND1      ind_disjunction_25_disjunct_1
 BV BND1      ind_disjunction_26_disjunct_1
 BV BND1      ind_disjunction_27_disjunct_1
 BV BND1      ind_disjunction_28_disjunct_1
 BV BND1      ind_disjunction_29_disjunct_1
 BV BND1      ind_disjunction_30_disjunct_1
 BV BND1      ind_disjunction_31_disjunct_1
 BV BND1      ind_disjunction_1_disjunct_2
 BV BND1      ind_disjunction_2_disjunct_2
 BV BND1      ind_disjunction_3_disjunct_2
 BV BND1      ind_disjunction_4_disjunct_2
 BV BND1      ind_disjunction_5_disjunct_2
 BV BND1      ind_disjunction_6_disjunct_2
 BV BND1      ind_disjunction_7_disjunct_2
 BV BND1      ind_disjunction_8_disjunct_2
 BV BND1      ind_disjunction_9_disjunct_2
 BV BND1      ind_disjunction_10_disjunct_2
 BV BND1      ind_disjunction_11_disjunct_2
 BV BND1      ind_disjunction_12_disjunct_2
 BV BND1      ind_disjunction_13_disjunct_2
 BV BND1      ind_disjunction_14_disjunct_2
 BV BND1      ind_disjunction_15_disjunct_2
 BV BND1      ind_disjunction_16_disjunct_2
 BV BND1      ind_disjunction_17_disjunct_2
 BV BND1      ind_disjunction_18_disjunct_2
 BV BND1      ind_disjunction_19_disjunct_2
 BV BND1      ind_disjunction_20_disjunct_2
 BV BND1      ind_disjunction_21_disjunct_2
 BV BND1      ind_disjunction_22_disjunct_2
 BV BND1      ind_disjunction_23_disjunct_2
 BV BND1      ind_disjunction_24_disjunct_2
 BV BND1      ind_disjunction_25_disjunct_2
 BV BND1      ind_disjunction_26_disjunct_2
 BV BND1      ind_disjunction_27_disjunct_2
 BV BND1      ind_disjunction_28_disjunct_2
 BV BND1      ind_disjunction_29_disjunct_2
 BV BND1      ind_disjunction_30_disjunct_2
 BV BND1      ind_disjunction_31_disjunct_2
 BV BND1      x[1,1]  
 BV BND1      x[28,1] 
 BV BND1      x[12,1] 
 BV BND1      x[2,2]  
 BV BND1      x[21,2] 
 BV BND1      x[5,2]  
 BV BND1      x[3,3]  
 BV BND1      x[17,3] 
 BV BND1      x[18,3] 
 BV BND1      x[4,4]  
 BV BND1      x[19,4] 
 BV BND1      x[29,4] 
 BV BND1      x[5,5]  
 BV BND1      x[16,5] 
 BV BND1      x[8,5]  
 BV BND1      x[6,6]  
 BV BND1      x[22,6] 
 BV BND1      x[28,6] 
 BV BND1      x[7,7]  
 BV BND1      x[10,7] 
 BV BND1      x[30,7] 
 BV BND1      x[8,8]  
 BV BND1      x[23,8] 
 BV BND1      x[16,8] 
 BV BND1      x[9,9]  
 BV BND1      x[14,9] 
 BV BND1      x[22,9] 
 BV BND1      x[10,10]
 BV BND1      x[7,10] 
 BV BND1      x[30,10]
 BV BND1      x[11,11]
 BV BND1      x[15,11]
 BV BND1      x[24,11]
 BV BND1      x[12,12]
 BV BND1      x[31,12]
 BV BND1      x[20,12]
 BV BND1      x[13,13]
 BV BND1      x[11,13]
 BV BND1      x[24,13]
 BV BND1      x[14,14]
 BV BND1      x[9,14] 
 BV BND1      x[22,14]
 BV BND1      x[15,15]
 BV BND1      x[11,15]
 BV BND1      x[24,15]
 BV BND1      x[16,16]
 BV BND1      x[8,16] 
 BV BND1      x[24,16]
 BV BND1      x[17,17]
 BV BND1      x[18,17]
 BV BND1      x[3,17] 
 BV BND1      x[18,18]
 BV BND1      x[17,18]
 BV BND1      x[3,18] 
 BV BND1      x[19,19]
 BV BND1      x[4,19] 
 BV BND1      x[29,19]
 BV BND1      x[20,20]
 BV BND1      x[27,20]
 BV BND1      x[31,20]
 BV BND1      x[21,21]
 BV BND1      x[25,21]
 BV BND1      x[26,21]
 BV BND1      x[22,22]
 BV BND1      x[14,22]
 BV BND1      x[9,22] 
 BV BND1      x[23,23]
 BV BND1      x[8,23] 
 BV BND1      x[16,23]
 BV BND1      x[24,24]
 BV BND1      x[11,24]
 BV BND1      x[15,24]
 BV BND1      x[25,25]
 BV BND1      x[26,25]
 BV BND1      x[21,25]
 BV BND1      x[26,26]
 BV BND1      x[25,26]
 BV BND1      x[21,26]
 BV BND1      x[27,27]
 BV BND1      x[20,27]
 BV BND1      x[31,27]
 BV BND1      x[28,28]
 BV BND1      x[1,28] 
 BV BND1      x[3,28] 
 BV BND1      x[29,29]
 BV BND1      x[4,29] 
 BV BND1      x[19,29]
 BV BND1      x[30,30]
 BV BND1      x[7,30] 
 BV BND1      x[10,30]
 BV BND1      x[31,31]
 BV BND1      x[27,31]
 BV BND1      x[20,31]
ENDATA
